58053541124773331185010,6,1,2,01,4,1,2,04,4,1,2,04,4,1,2,012,12,1,2,01,10,1,2,012,4,1,2,07,15,1,2,014,10,1,2,010,14,1,2,08,10,1,2,08,11,1,2,08,11,1,2,01,3,1,2,08,14,1,2,02,9,1,2,04,5,1,2,013,5,1,2,010,9,1,2,01,7,1,2,09,9,1,2,011,10,1,2,03,9,1,2,06,14,1,2,02,6,1,2,01,8,1,2,08,14,1,2,04,4,1,2,06,5,1,2,05,11,1,2,07,3,1,2,02,11,1,2,08,7,1,2,08,9,1,2,012,9,1,2,010,4,1,2,013,15,1,2,05,10,1,2,08,10,1,2,08,1,1,2,014,3,1,2,02,6,1,2,013,3,1,2,06,5,1,2,03,7,1,2,015,6,1,2,03,1,1,2,04,5,1,2,02,12,1,2,08,11,1,2,0